Instance name: /home/cuong/CLionProjects/uMV-FSTSP/50_dis_rand_ins/v79
Write arg val: 1

drone speed: 1 miles/minute
uav non-eligible customer: 10 11 
Printing tau:
0 5.73054 61.1076 55.8272 36.2287 41.5399 31.5538 48.5939 48.9189 106.399 87.8464 0 
5.73054 0 66.8382 51.1155 41.9593 47.2705 37.2844 54.3245 54.6494 112.129 93.577 5.73054 
61.1076 66.8382 0 20.6273 29.9853 31.202 35.7657 90.3546 72.7823 45.291 37.6244 61.1076 
55.8272 51.1155 20.6273 0 38.8003 40.017 44.5807 99.1696 81.5973 65.9183 47.3661 55.8272 
36.2287 41.9593 29.9853 38.8003 0 5.31119 5.78039 60.3693 42.797 70.1699 51.6177 36.2287 
41.5399 47.2705 31.202 40.017 5.31119 0 9.9861 59.1526 41.5803 64.8588 46.3065 41.5399 
31.5538 37.2844 35.7657 44.5807 5.78039 9.9861 0 54.5889 37.0166 74.8448 56.2926 31.5538 
48.5939 54.3245 90.3546 99.1696 60.3693 59.1526 54.5889 0 17.5723 57.8047 52.7302 48.5939 
48.9189 54.6494 72.7823 81.5973 42.797 41.5803 37.0166 17.5723 0 57.4798 38.9275 48.9189 
106.399 112.129 45.291 65.9183 70.1699 64.8588 74.8448 57.8047 57.4798 0 18.5522 106.399 
87.8464 93.577 37.6244 47.3661 51.6177 46.3065 56.2926 52.7302 38.9275 18.5522 0 87.8464 
0 0 0 0 0 0 0 0 0 0 0 0 
Printing tau_prime:
0 1.96723 20.444 18.2855 10.6147 11.7858 8.88255 17.2662 14.6614 28.2605 23.4264 0 
1.96723 0 20.9743 18.2718 11.5955 12.8753 10.0372 19.2319 16.5929 29.7352 24.8443 1.96723 
20.444 20.9743 0 5.94815 10.3315 9.76607 12.3027 24.1876 19.5681 16.173 12.2395 20.444 
18.2855 18.2718 5.94815 0 10.3501 10.6148 12.0559 26.3842 21.7521 21.8852 17.5894 18.2855 
10.6147 11.5955 10.3315 10.3501 0 1.44482 1.9713 16.3402 11.8367 18.8284 13.8363 10.6147 
11.7858 12.8753 9.76607 10.6148 1.44482 0 2.91138 15.7963 11.1979 17.3875 12.3964 11.7858 
8.88255 10.0372 12.3027 12.0559 1.9713 2.91138 0 15.1639 10.8419 19.892 14.935 8.88255 
17.2662 19.2319 24.1876 26.3842 16.3402 15.7963 15.1639 0 4.66035 20.1805 17.4309 17.2662 
14.6614 16.5929 19.5681 21.7521 11.8367 11.1979 10.8419 4.66035 0 17.4356 13.909 14.6614 
28.2605 29.7352 16.173 21.8852 18.8284 17.3875 19.892 20.1805 17.4356 0 4.99323 28.2605 
23.4264 24.8443 12.2395 17.5894 13.8363 12.3964 14.935 17.4309 13.909 4.99323 0 23.4264 
0 0 0 0 0 0 0 0 0 0 0 0 
Version identifier: 22.1.1.0 | 2022-11-28 | 9160aff4d
CPXPARAM_MIP_Tolerances_Integrality              0
Tried aggregator 1 time.
MIP Presolve eliminated 1 rows and 12 columns.
MIP Presolve modified 20 coefficients.
Reduced MIP has 122 rows, 120 columns, and 510 nonzeros.
Reduced MIP has 110 binaries, 0 generals, 0 SOSs, and 0 indicators.
Presolve time = 0.00 sec. (0.27 ticks)
Found incumbent of value 575.583900 after 0.00 sec. (0.75 ticks)
Probing time = 0.00 sec. (0.26 ticks)
Cover probing fixed 0 vars, tightened 10 bounds.
Tried aggregator 1 time.
Detecting symmetries...
MIP Presolve eliminated 10 rows and 0 columns.
MIP Presolve modified 180 coefficients.
Reduced MIP has 112 rows, 120 columns, and 490 nonzeros.
Reduced MIP has 110 binaries, 0 generals, 0 SOSs, and 0 indicators.
Presolve time = 0.00 sec. (0.35 ticks)
Probing time = 0.00 sec. (0.26 ticks)
Clique table members: 67.
MIP emphasis: balance optimality and feasibility.
MIP search method: dynamic search.
Parallel mode: deterministic, using up to 20 threads.
Root relaxation solution time = 0.00 sec. (0.20 ticks)

        Nodes                                         Cuts/
   Node  Left     Objective  IInf  Best Integer    Best Bound    ItCnt     Gap

*     0+    0                          575.5839        0.0000           100.00%
      0     0      166.3789    17      575.5839      166.3789       23   71.09%
*     0+    0                          326.0207      166.3789            48.97%
      0     0      250.7139    19      326.0207      Cuts: 30       44   23.10%
      0     0      250.7139    14      326.0207      Cuts: 30       61   23.10%
      0     0      250.7139    16      326.0207      Cuts: 15       74   23.10%
      0     0      250.7139    14      326.0207    MIRcuts: 2       75   23.10%
*     0+    0                          283.6877      250.7139            11.62%
Detecting symmetries...
      0     0        cutoff            283.6877      283.6877       75    0.00%
Elapsed time = 0.03 sec. (10.83 ticks, tree = 0.01 MB, solutions = 3)

Clique cuts applied:  4
Implied bound cuts applied:  1
Mixed integer rounding cuts applied:  2
Zero-half cuts applied:  1
Multi commodity flow cuts applied:  1
Gomory fractional cuts applied:  1

Root node processing (before b&c):
  Real time             =    0.03 sec. (10.84 ticks)
Parallel b&c, 20 threads:
  Real time             =    0.00 sec. (0.00 ticks)
  Sync time (average)   =    0.00 sec.
  Wait time (average)   =    0.00 sec.
                          ------------
Total (root+branch&cut) =    0.03 sec. (10.84 ticks)

TSP solution for this instance: 0 1 7 8 10 9 2 3 5 4 6 11 
12
Warmstart X[1][0] == 1
Warmstart X[2][1] == 1
Warmstart X[3][7] == 1
Warmstart X[4][8] == 1
Warmstart X[5][10] == 1
Warmstart X[6][9] == 1
Warmstart X[7][2] == 1
Warmstart X[8][3] == 1
Warmstart X[9][5] == 1
Warmstart X[10][4] == 1
Warmstart X[11][6] == 1
---------------------------------------------
Calculate max stage gap for sortie.... 
Stage gap of 5 with smallest length = 22.9222 violated endurance constraint!
---------------------------------------------
Variable z[1][6] was set to 0.
Variable z[1][7] was set to 0.
Variable z[1][8] was set to 0.
Variable z[1][9] was set to 0.
Variable z[1][10] was set to 0.
Variable z[1][11] was set to 0.
Variable z[1][12] was set to 0.
Variable z[2][7] was set to 0.
Variable z[2][8] was set to 0.
Variable z[2][9] was set to 0.
Variable z[2][10] was set to 0.
Variable z[2][11] was set to 0.
Variable z[2][12] was set to 0.
Variable z[3][8] was set to 0.
Variable z[3][9] was set to 0.
Variable z[3][10] was set to 0.
Variable z[3][11] was set to 0.
Variable z[3][12] was set to 0.
Variable z[4][9] was set to 0.
Variable z[4][10] was set to 0.
Variable z[4][11] was set to 0.
Variable z[4][12] was set to 0.
Variable z[5][10] was set to 0.
Variable z[5][11] was set to 0.
Variable z[5][12] was set to 0.
Variable z[6][11] was set to 0.
Variable z[6][12] was set to 0.
Variable z[7][12] was set to 0.
Num constraint added = 5346
Warning:  Output names have been modified due to duplicate names or characters invalid in LP format.
Version identifier: 22.1.1.0 | 2022-11-28 | 9160aff4d
CPXPARAM_TimeLimit                               200
CPXPARAM_MIP_Tolerances_Integrality              0
1 of 1 MIP starts provided solutions.
MIP start 'm1' defined initial solution with objective 283.6877.
Tried aggregator 5 times.
MIP Presolve eliminated 6885 rows and 2356 columns.
MIP Presolve modified 2122 coefficients.
Aggregator did 45 substitutions.
Reduced MIP has 1244 rows, 2375 columns, and 39112 nonzeros.
Reduced MIP has 2354 binaries, 0 generals, 0 SOSs, and 0 indicators.
Presolve time = 0.11 sec. (258.69 ticks)
Probing fixed 140 vars, tightened 0 bounds.
Probing changed sense of 4 constraints.
Probing time = 0.03 sec. (68.97 ticks)
Tried aggregator 2 times.
Detecting symmetries...
MIP Presolve eliminated 44 rows and 168 columns.
MIP Presolve modified 406 coefficients.
Aggregator did 17 substitutions.
Reduced MIP has 1163 rows, 2190 columns, and 34856 nonzeros.
Reduced MIP has 2169 binaries, 0 generals, 0 SOSs, and 0 indicators.
Presolve time = 0.03 sec. (57.56 ticks)
Probing time = 0.00 sec. (5.07 ticks)
Clique table members: 10093.
MIP emphasis: balance optimality and feasibility.
MIP search method: dynamic search.
Parallel mode: deterministic, using up to 20 threads.
Root relaxation solution time = 0.11 sec. (241.35 ticks)

        Nodes                                         Cuts/
   Node  Left     Objective  IInf  Best Integer    Best Bound    ItCnt     Gap

*     0+    0                          283.6877        5.7305            97.98%
      0     0      178.4668   301      283.6877      178.4668       32   37.09%
      0     0      219.3242   216      283.6877      Cuts: 28     2380   22.69%
      0     0      220.1829   274      283.6877      Cuts: 35     3739   22.39%
      0     0      220.7774   199      283.6877       Cuts: 9     5213   22.18%
      0     0      221.8714   287      283.6877      Cuts: 31     7091   21.75%
      0     0      224.0022   351      283.6877      Cuts: 22     9142   21.04%
Detecting symmetries...
      0     0      224.9320   284      283.6877      Cuts: 11    10419   20.71%
      0     0      225.0649   285      283.6877       Cuts: 5    10862   20.66%
      0     0      225.4732   282      283.6877      Cuts: 14    12079   20.52%
      0     0      225.6090   318      283.6877       Cuts: 6    12446   20.47%
      0     0      225.6152   311      283.6877   ZeroHalf: 4    12702   20.47%
      0     0      225.6152   315      283.6877   ZeroHalf: 4    12914   20.47%
Detecting symmetries...
      0     2      225.6152   307      283.6877      225.6152    12914   20.47%
Elapsed time = 1.77 sec. (3441.81 ticks, tree = 0.02 MB, solutions = 1)
      2     3      225.9676   278      283.6877      225.6154    14633   20.47%
      8     6      242.4226    28      283.6877      225.9760    17382   20.34%
    138    45        cutoff            283.6877      230.0261    50613   18.92%
    772    47      283.3319   217      283.6877      233.4609   108526   17.70%
   1346    58        cutoff            283.6877      235.3128   171524   17.05%
   1488    28      270.7952    16      283.6877      235.3128   183285   17.05%
   2232   240      272.2153    51      283.6877      240.4950   236142   15.23%
   3133   335      269.4580    47      283.6877      245.3057   307303   13.53%
   3714   308    infeasible            283.6877      245.3057   352981   13.53%
*  3862   285      integral     0      279.1598      246.7843   362245   11.60%

GUB cover cuts applied:  7
Clique cuts applied:  4
Cover cuts applied:  66
Implied bound cuts applied:  73
Zero-half cuts applied:  43
Lift and project cuts applied:  2
Gomory fractional cuts applied:  4

Root node processing (before b&c):
  Real time             =    1.72 sec. (3351.53 ticks)
Parallel b&c, 20 threads:
  Real time             =    2.65 sec. (3217.12 ticks)
  Sync time (average)   =    1.15 sec.
  Wait time (average)   =    0.00 sec.
                          ------------
Total (root+branch&cut) =    4.38 sec. (6568.65 ticks)
Feasible solution found!
Truck nodes:
Stage 1 at customer 0 with arrival time is: 0
Stage 1 at customer 0 with departure time is: 0
Stage 2 at customer 1 with arrival time is: 5.73054
Stage 2 at customer 1 with departure time is: 5.73054
Stage 3 at customer 7 with arrival time is: 60.055
Stage 3 at customer 7 with departure time is: 60.055
Stage 4 at customer 8 with arrival time is: 77.6273
Stage 4 at customer 8 with departure time is: 77.6273
Stage 5 at customer 10 with arrival time is: 116.555
Stage 5 at customer 10 with departure time is: 116.555
Stage 6 at customer 9 with arrival time is: 135.107
Stage 6 at customer 9 with departure time is: 135.107
Stage 7 at customer 2 with arrival time is: 180.398
Stage 7 at customer 2 with departure time is: 180.398
Stage 8 at customer 3 with arrival time is: 201.025
Stage 8 at customer 3 with departure time is: 201.025
Stage 9 at customer 4 with arrival time is: 239.826
Stage 9 at customer 4 with departure time is: 240.826
Stage 10 at customer 6 with arrival time is: 246.606
Stage 10 at customer 6 with departure time is: 247.606
Stage 11 at customer 11 with arrival time is: 279.16
Stage 11 at customer 11 with departure time is: 279.16
Truck arcs:
Arc 1 connecting 0 and 1 with cost 5.73054 
Arc 2 connecting 1 and 7 with cost 54.3245 
Arc 3 connecting 7 and 8 with cost 17.5723 
Arc 4 connecting 8 and 10 with cost 38.9275 
Arc 5 connecting 10 and 9 with cost 18.5522 
Arc 6 connecting 9 and 2 with cost 45.291 
Arc 7 connecting 2 and 3 with cost 20.6273 
Arc 8 connecting 3 and 4 with cost 38.8003 
Arc 9 connecting 4 and 6 with cost 5.78039 
Arc 10 connecting 6 and 11 with cost 31.5538 
Customer 5 served by drone.
Drone fly from 4 at stage 9 to serve 5 and then fly back to 6 at stage 10. 
Truck arcs during this sortie: 4--->6
Truck travel time from stage 9 to 10 is: 5.78039
Total drone travel time: 4.3562
Drone arrival time: 245.182
Truck arrival time: 246.606
Truck departure time = max(d/a, t/a) plus (sl/sr): 247.606
Done!
-------------------------Re-calculated objective-----------------------
279.16
------------------------------------------------------------------------
Solve time: 4.379
OBJECTIVE VALUE: 279.16, NUMBER OF SORTIES: 1.
Number of revisit: 0
In write mode
